
  22    4
  10   10   10   10

   0   0   0   0   0   2 2 6 
   4  10  10  10  10   3 8 5 3 
   5  10  10  10  10   2 12 4 
   9  10  10  10  10   2 10 7 
   6  10  10  10  10   2 14 9 
   6  10  10  10  10   2 12 9 
   6  10  10  10  10   3 21 14 11 
   7  10  10  10  10   3 21 14 11 
  10  10  10  10  10   1 10 
  10  10  10  10  10   2 21 11 
   1  10  10  10  10   3 20 15 13 
   5  10  10  10  10   2 16 15 
  10  10  10  10  10   2 19 16 
   1  10  10  10  10   2 19 16 
   4  10  10  10  10   2 19 17 
   7  10  10  10  10   1 17 
   6  10  10  10  10   1 18 
   5  10  10  10  10   1 22
   2  10  10  10  10   1 22
   8  10  10  10  10   1 22
   4  10  10  10  10   1 22
   0   0   0   0   0   0 
